
Welcome to IBM(R) ILOG(R) CPLEX(R) Interactive Optimizer 22.1.1.0
  with Simplex, Mixed Integer & Barrier Optimizers
5725-A06 5725-A29 5724-Y48 5724-Y49 5724-Y54 5724-Y55 5655-Y21
Copyright IBM Corp. 1988, 2022.  All Rights Reserved.

Type 'help' for a list of available commands.
Type 'help' followed by a command name for more
information on commands.

CPLEX> Selected objective sense:  MINIMIZE
Selected objective  name:  00000000
Selected RHS        name:  RHS1
Selected bound      name:  BOUND
Problem 'ee.mps' read.
Read time = 0.03 sec. (3.17 ticks)
CPLEX> New value for time limit in seconds: 7200
CPLEX> New value for parallel optimization mode: -1
CPLEX> New value for default parallel thread count: 40
CPLEX> New value for mixed integer optimality gap tolerance: 1e-13
CPLEX> Version identifier: 22.1.1.0 | 2022-11-28 | 9160aff4d
CPXPARAM_Threads                                 40
CPXPARAM_Parallel                                -1
CPXPARAM_TimeLimit                               7200
CPXPARAM_MIP_Tolerances_MIPGap                   1e-13
Found incumbent of value 0.000000 after 0.00 sec. (0.31 ticks)
Tried aggregator 2 times.
MIP Presolve eliminated 277 rows and 3331 columns.
MIP Presolve modified 6105 coefficients.
Aggregator did 873 substitutions.
Reduced MIP has 3382 rows, 7066 columns, and 26193 nonzeros.
Reduced MIP has 7066 binaries, 0 generals, 0 SOSs, and 0 indicators.
Presolve time = 0.07 sec. (70.63 ticks)
Probing fixed 24 vars, tightened 0 bounds.
Probing time = 0.06 sec. (29.04 ticks)
Tried aggregator 2 times.
Detecting symmetries...
MIP Presolve eliminated 28 rows and 46 columns.
Aggregator did 2 substitutions.
Reduced MIP has 3352 rows, 7012 columns, and 26019 nonzeros.
Reduced MIP has 7012 binaries, 0 generals, 0 SOSs, and 0 indicators.
Presolve time = 0.04 sec. (47.07 ticks)
Probing time = 0.02 sec. (5.12 ticks)
Clique table members: 16822.
MIP emphasis: balance optimality and feasibility.
MIP search method: dynamic search.
Parallel mode: opportunistic, using up to 40 threads.
Root relaxation solution time = 0.14 sec. (115.97 ticks)

        Nodes                                         Cuts/
   Node  Left     Objective  IInf  Best Integer    Best Bound    ItCnt     Gap

*     0+    0                            0.0000  -1.54000e+13              --- 
*     0+    0                      -6.00000e+12  -1.54000e+13           156.67%
*     0+    0                      -7.20000e+12  -1.54000e+13           113.89%
      0     0  -1.53900e+13    72  -7.20000e+12  -1.53900e+13     2506  113.75%
*     0+    0                      -1.29900e+13  -1.53900e+13            18.48%
*     0+    0                      -1.53900e+13  -1.53900e+13             0.00%
      0     0  -1.53900e+13   164  -1.53900e+13      Cuts: 65     3175    0.00%
      0     0  -1.53900e+13   265  -1.53900e+13      Cuts: 80     3446    0.00%
*     0+    0                      -1.53900e+13  -1.53900e+13             0.00%
      0     2  -1.53900e+13   259  -1.53900e+13  -1.53900e+13     3446    0.00%
Elapsed time = 2.90 sec. (1360.93 ticks, tree = 0.02 MB, solutions = 9)
*    25+   16                      -1.53900e+13  -1.53900e+13             0.00%
     40     7  -1.53900e+13   247  -1.53900e+13  -1.53900e+13     4542    0.00%
    162    31  -1.53900e+13   111  -1.53900e+13  -1.53900e+13    24911    0.00%
    494    81  -1.53900e+13    96  -1.53900e+13  -1.53900e+13   137026    0.00%
   1138    76  -1.53900e+13    64  -1.53900e+13  -1.53900e+13   130342    0.00%
   1954    87  -1.53900e+13   104  -1.53900e+13  -1.53900e+13   129830    0.00%
   2698   155  -1.53900e+13    81  -1.53900e+13  -1.53900e+13   160226    0.00%
   3455   236  -1.53900e+13    96  -1.53900e+13  -1.53900e+13   194897    0.00%
   4255   492  -1.53900e+13    74  -1.53900e+13  -1.53900e+13   243581    0.00%
   4928   810        cutoff        -1.53900e+13  -1.53900e+13   307133    0.00%
   6880  2411  -1.53900e+13   187  -1.53900e+13  -1.53900e+13   597074    0.00%
Elapsed time = 8.96 sec. (4469.45 ticks, tree = 41.77 MB, solutions = 13)
   8914  2293  -1.53900e+13   189  -1.53900e+13  -1.53900e+13   570481    0.00%
  10807  3128  -1.53900e+13   167  -1.53900e+13  -1.53900e+13   790622    0.00%
  11439  3251  -1.53900e+13   147  -1.53900e+13  -1.53900e+13   837635    0.00%

Performing restart 1

Repeating presolve.
Tried aggregator 1 time.
MIP Presolve eliminated 17 rows and 14 columns.
MIP Presolve modified 1693 coefficients.
Reduced MIP has 3275 rows, 6998 columns, and 25543 nonzeros.
Reduced MIP has 6998 binaries, 0 generals, 0 SOSs, and 0 indicators.
Presolve time = 0.03 sec. (25.12 ticks)
Tried aggregator 1 time.
Reduced MIP has 3275 rows, 6998 columns, and 25543 nonzeros.
Reduced MIP has 6998 binaries, 0 generals, 0 SOSs, and 0 indicators.
Presolve time = 0.02 sec. (20.06 ticks)
Represolve time = 0.19 sec. (93.16 ticks)
  11451     0  -1.53900e+13   269  -1.53900e+13      Cuts: 53  1135669    0.00%
  11451     0  -1.53900e+13   418  -1.53900e+13      Cuts: 60  1136583    0.00%
  11451     0  -1.53900e+13   306  -1.53900e+13      Cuts: 67  1137097    0.00%
  11451     0  -1.53900e+13   309  -1.53900e+13      Cuts: 59  1137711    0.00%
  11451     0  -1.53900e+13   357  -1.53900e+13      Cuts: 51  1138057    0.00%
  11451     0  -1.53900e+13   352  -1.53900e+13      Cuts: 56  1138319    0.00%
  11451     0  -1.53900e+13   342  -1.53900e+13      Cuts: 62  1139381    0.00%
  11451     0  -1.53900e+13   425  -1.53900e+13      Cuts: 80  1140367    0.00%
  11451    26        cutoff        -1.53900e+13  -1.53900e+13  1227802    0.00%
  11887    86  -1.53900e+13   136  -1.53900e+13  -1.53900e+13  1261279    0.00%
  13045    81  -1.53900e+13   214  -1.53900e+13  -1.53900e+13  1263763    0.00%
  15142    58        cutoff        -1.53900e+13  -1.53900e+13  1440179    0.00%
  16724    72        cutoff        -1.53900e+13  -1.53900e+13  1459608    0.00%
  18146   450        cutoff        -1.53900e+13  -1.53900e+13  1619831    0.00%
  19269   474  -1.53900e+13    91  -1.53900e+13  -1.53900e+13  1629685    0.00%
Elapsed time = 33.99 sec. (18594.64 ticks, tree = 6.55 MB, solutions = 16)
  20491   872  -1.53900e+13   284  -1.53900e+13  -1.53900e+13  1814982    0.00%
  21883   883        cutoff        -1.53900e+13  -1.53900e+13  1817978    0.00%
  23207   749  -1.53900e+13    43  -1.53900e+13  -1.53900e+13  1777930    0.00%
  23805   807        cutoff        -1.53900e+13  -1.53900e+13  1798947    0.00%
  23911   591  -1.53900e+13   223  -1.53900e+13  -1.53900e+13  1888161    0.00%

GUB cover cuts applied:  14
Clique cuts applied:  10
Cover cuts applied:  458
Flow cuts applied:  1
Mixed integer rounding cuts applied:  44
Zero-half cuts applied:  63
Lift and project cuts applied:  2
Gomory fractional cuts applied:  23

Root node processing (before b&c):
  Real time             =    1.53 sec. (1346.67 ticks)
Parallel b&c, 40 threads:
  Real time             =   32.56 sec. (22626.06 ticks)
  Sync time (average)   =    6.98 sec.
  Wait time (average)   =    0.15 sec.
                          ------------
Total (root+branch&cut) =   34.09 sec. (23972.72 ticks)

Solution pool: 16 solutions saved.

MIP - Integer optimal solution:  Objective = -1.5389997389e+13
Solution time =   34.22 sec.  Iterations = 2083360  Nodes = 23986
Deterministic time = 23972.76 ticks  (700.48 ticks/sec)

CPLEX> Solution 'p17' written to file 'ee.sol'.
CPLEX> 